rectOffsets = 
    [|0,0,3,3|0,0,3,3|0,0,3,4|0,0,4,3|0,0,3,5|0,0,5,3|0,0,3,6|0,0,6,3|0,0,3,7|0,0,7,3|0,0,3,8|0,0,8,3|0,0,3,10|0,0,10,3|0,0,3,12|0,0,12,3|0,0,4,7|0,0,7,4|0,0,7,9|0,0,9,7|];

shape = array1d(1..20, [{1}, {2}, {3}, {4}, {5}, {6}, {7}, {8}, {9}, {10},
    {11}, {12}, {13}, {14}, {15}, {16}, {17}, {18}, {19}, {20}]);

validshapes = array1d(1..10, [{1,2}, {3,4}, {5,6}, {7,8}, {9,10}, {11,12}, {13,14},
    {15,16}, {17,18}, {19,20}]);

dx = array1d(1..10, [3, 3, 3, 3, 3, 3, 3, 3, 4, 7]);

dy = array1d(1..10, [3, 4, 5, 6, 7, 8, 10, 12, 7, 9]);

w = 16;

n = 10;

o = 20;

